NAME : sample7
COMMENT : Sample dataset with 7 nodes
COMMENT : Derived from Zainab
TYPE : TSP
DIMENSION : 7
EDGE_WEIGHT_TYPE : EUC_2D
NODE_COORD_SECTION
1 11.0000 20.0000
2 19.0000 25.0000
3 30.0000 16.0000
4 25.0000 13.0000
5 14.0000 15.0000
6 22.0000 12.0000
7 24.0000 20.0000
EOF
